60

  0    1    2    3    1    2    3    4    2    3    4    5    3    4    5    6    4    5    6    7    5    6    7    8    6    7    8    9    7    8    9   10    8    9   10   11    9   10   11   12   10   11   12   13   11   12   13   14   12   13   14   15   13   14   15   16   14   15   16   17  
  1    0    1    2    2    1    2    3    3    2    3    4    4    3    4    5    5    4    5    6    6    5    6    7    7    6    7    8    8    7    8    9    9    8    9   10   10    9   10   11   11   10   11   12   12   11   12   13   13   12   13   14   14   13   14   15   15   14   15   16  
  2    1    0    1    3    2    1    2    4    3    2    3    5    4    3    4    6    5    4    5    7    6    5    6    8    7    6    7    9    8    7    8   10    9    8    9   11   10    9   10   12   11   10   11   13   12   11   12   14   13   12   13   15   14   13   14   16   15   14   15  
  3    2    1    0    4    3    2    1    5    4    3    2    6    5    4    3    7    6    5    4    8    7    6    5    9    8    7    6   10    9    8    7   11   10    9    8   12   11   10    9   13   12   11   10   14   13   12   11   15   14   13   12   16   15   14   13   17   16   15   14  
  1    2    3    4    0    1    2    3    1    2    3    4    2    3    4    5    3    4    5    6    4    5    6    7    5    6    7    8    6    7    8    9    7    8    9   10    8    9   10   11    9   10   11   12   10   11   12   13   11   12   13   14   12   13   14   15   13   14   15   16  
  2    1    2    3    1    0    1    2    2    1    2    3    3    2    3    4    4    3    4    5    5    4    5    6    6    5    6    7    7    6    7    8    8    7    8    9    9    8    9   10   10    9   10   11   11   10   11   12   12   11   12   13   13   12   13   14   14   13   14   15  
  3    2    1    2    2    1    0    1    3    2    1    2    4    3    2    3    5    4    3    4    6    5    4    5    7    6    5    6    8    7    6    7    9    8    7    8   10    9    8    9   11   10    9   10   12   11   10   11   13   12   11   12   14   13   12   13   15   14   13   14  
  4    3    2    1    3    2    1    0    4    3    2    1    5    4    3    2    6    5    4    3    7    6    5    4    8    7    6    5    9    8    7    6   10    9    8    7   11   10    9    8   12   11   10    9   13   12   11   10   14   13   12   11   15   14   13   12   16   15   14   13  
  2    3    4    5    1    2    3    4    0    1    2    3    1    2    3    4    2    3    4    5    3    4    5    6    4    5    6    7    5    6    7    8    6    7    8    9    7    8    9   10    8    9   10   11    9   10   11   12   10   11   12   13   11   12   13   14   12   13   14   15  
  3    2    3    4    2    1    2    3    1    0    1    2    2    1    2    3    3    2    3    4    4    3    4    5    5    4    5    6    6    5    6    7    7    6    7    8    8    7    8    9    9    8    9   10   10    9   10   11   11   10   11   12   12   11   12   13   13   12   13   14  
  4    3    2    3    3    2    1    2    2    1    0    1    3    2    1    2    4    3    2    3    5    4    3    4    6    5    4    5    7    6    5    6    8    7    6    7    9    8    7    8   10    9    8    9   11   10    9   10   12   11   10   11   13   12   11   12   14   13   12   13  
  5    4    3    2    4    3    2    1    3    2    1    0    4    3    2    1    5    4    3    2    6    5    4    3    7    6    5    4    8    7    6    5    9    8    7    6   10    9    8    7   11   10    9    8   12   11   10    9   13   12   11   10   14   13   12   11   15   14   13   12  
  3    4    5    6    2    3    4    5    1    2    3    4    0    1    2    3    1    2    3    4    2    3    4    5    3    4    5    6    4    5    6    7    5    6    7    8    6    7    8    9    7    8    9   10    8    9   10   11    9   10   11   12   10   11   12   13   11   12   13   14  
  4    3    4    5    3    2    3    4    2    1    2    3    1    0    1    2    2    1    2    3    3    2    3    4    4    3    4    5    5    4    5    6    6    5    6    7    7    6    7    8    8    7    8    9    9    8    9   10   10    9   10   11   11   10   11   12   12   11   12   13  
  5    4    3    4    4    3    2    3    3    2    1    2    2    1    0    1    3    2    1    2    4    3    2    3    5    4    3    4    6    5    4    5    7    6    5    6    8    7    6    7    9    8    7    8   10    9    8    9   11   10    9   10   12   11   10   11   13   12   11   12  
  6    5    4    3    5    4    3    2    4    3    2    1    3    2    1    0    4    3    2    1    5    4    3    2    6    5    4    3    7    6    5    4    8    7    6    5    9    8    7    6   10    9    8    7   11   10    9    8   12   11   10    9   13   12   11   10   14   13   12   11  
  4    5    6    7    3    4    5    6    2    3    4    5    1    2    3    4    0    1    2    3    1    2    3    4    2    3    4    5    3    4    5    6    4    5    6    7    5    6    7    8    6    7    8    9    7    8    9   10    8    9   10   11    9   10   11   12   10   11   12   13  
  5    4    5    6    4    3    4    5    3    2    3    4    2    1    2    3    1    0    1    2    2    1    2    3    3    2    3    4    4    3    4    5    5    4    5    6    6    5    6    7    7    6    7    8    8    7    8    9    9    8    9   10   10    9   10   11   11   10   11   12  
  6    5    4    5    5    4    3    4    4    3    2    3    3    2    1    2    2    1    0    1    3    2    1    2    4    3    2    3    5    4    3    4    6    5    4    5    7    6    5    6    8    7    6    7    9    8    7    8   10    9    8    9   11   10    9   10   12   11   10   11  
  7    6    5    4    6    5    4    3    5    4    3    2    4    3    2    1    3    2    1    0    4    3    2    1    5    4    3    2    6    5    4    3    7    6    5    4    8    7    6    5    9    8    7    6   10    9    8    7   11   10    9    8   12   11   10    9   13   12   11   10  
  5    6    7    8    4    5    6    7    3    4    5    6    2    3    4    5    1    2    3    4    0    1    2    3    1    2    3    4    2    3    4    5    3    4    5    6    4    5    6    7    5    6    7    8    6    7    8    9    7    8    9   10    8    9   10   11    9   10   11   12  
  6    5    6    7    5    4    5    6    4    3    4    5    3    2    3    4    2    1    2    3    1    0    1    2    2    1    2    3    3    2    3    4    4    3    4    5    5    4    5    6    6    5    6    7    7    6    7    8    8    7    8    9    9    8    9   10   10    9   10   11  
  7    6    5    6    6    5    4    5    5    4    3    4    4    3    2    3    3    2    1    2    2    1    0    1    3    2    1    2    4    3    2    3    5    4    3    4    6    5    4    5    7    6    5    6    8    7    6    7    9    8    7    8   10    9    8    9   11   10    9   10  
  8    7    6    5    7    6    5    4    6    5    4    3    5    4    3    2    4    3    2    1    3    2    1    0    4    3    2    1    5    4    3    2    6    5    4    3    7    6    5    4    8    7    6    5    9    8    7    6   10    9    8    7   11   10    9    8   12   11   10    9  
  6    7    8    9    5    6    7    8    4    5    6    7    3    4    5    6    2    3    4    5    1    2    3    4    0    1    2    3    1    2    3    4    2    3    4    5    3    4    5    6    4    5    6    7    5    6    7    8    6    7    8    9    7    8    9   10    8    9   10   11  
  7    6    7    8    6    5    6    7    5    4    5    6    4    3    4    5    3    2    3    4    2    1    2    3    1    0    1    2    2    1    2    3    3    2    3    4    4    3    4    5    5    4    5    6    6    5    6    7    7    6    7    8    8    7    8    9    9    8    9   10  
  8    7    6    7    7    6    5    6    6    5    4    5    5    4    3    4    4    3    2    3    3    2    1    2    2    1    0    1    3    2    1    2    4    3    2    3    5    4    3    4    6    5    4    5    7    6    5    6    8    7    6    7    9    8    7    8   10    9    8    9  
  9    8    7    6    8    7    6    5    7    6    5    4    6    5    4    3    5    4    3    2    4    3    2    1    3    2    1    0    4    3    2    1    5    4    3    2    6    5    4    3    7    6    5    4    8    7    6    5    9    8    7    6   10    9    8    7   11   10    9    8  
  7    8    9   10    6    7    8    9    5    6    7    8    4    5    6    7    3    4    5    6    2    3    4    5    1    2    3    4    0    1    2    3    1    2    3    4    2    3    4    5    3    4    5    6    4    5    6    7    5    6    7    8    6    7    8    9    7    8    9   10  
  8    7    8    9    7    6    7    8    6    5    6    7    5    4    5    6    4    3    4    5    3    2    3    4    2    1    2    3    1    0    1    2    2    1    2    3    3    2    3    4    4    3    4    5    5    4    5    6    6    5    6    7    7    6    7    8    8    7    8    9  
  9    8    7    8    8    7    6    7    7    6    5    6    6    5    4    5    5    4    3    4    4    3    2    3    3    2    1    2    2    1    0    1    3    2    1    2    4    3    2    3    5    4    3    4    6    5    4    5    7    6    5    6    8    7    6    7    9    8    7    8  
 10    9    8    7    9    8    7    6    8    7    6    5    7    6    5    4    6    5    4    3    5    4    3    2    4    3    2    1    3    2    1    0    4    3    2    1    5    4    3    2    6    5    4    3    7    6    5    4    8    7    6    5    9    8    7    6   10    9    8    7  
  8    9   10   11    7    8    9   10    6    7    8    9    5    6    7    8    4    5    6    7    3    4    5    6    2    3    4    5    1    2    3    4    0    1    2    3    1    2    3    4    2    3    4    5    3    4    5    6    4    5    6    7    5    6    7    8    6    7    8    9  
  9    8    9   10    8    7    8    9    7    6    7    8    6    5    6    7    5    4    5    6    4    3    4    5    3    2    3    4    2    1    2    3    1    0    1    2    2    1    2    3    3    2    3    4    4    3    4    5    5    4    5    6    6    5    6    7    7    6    7    8  
 10    9    8    9    9    8    7    8    8    7    6    7    7    6    5    6    6    5    4    5    5    4    3    4    4    3    2    3    3    2    1    2    2    1    0    1    3    2    1    2    4    3    2    3    5    4    3    4    6    5    4    5    7    6    5    6    8    7    6    7  
 11   10    9    8   10    9    8    7    9    8    7    6    8    7    6    5    7    6    5    4    6    5    4    3    5    4    3    2    4    3    2    1    3    2    1    0    4    3    2    1    5    4    3    2    6    5    4    3    7    6    5    4    8    7    6    5    9    8    7    6  
  9   10   11   12    8    9   10   11    7    8    9   10    6    7    8    9    5    6    7    8    4    5    6    7    3    4    5    6    2    3    4    5    1    2    3    4    0    1    2    3    1    2    3    4    2    3    4    5    3    4    5    6    4    5    6    7    5    6    7    8  
 10    9   10   11    9    8    9   10    8    7    8    9    7    6    7    8    6    5    6    7    5    4    5    6    4    3    4    5    3    2    3    4    2    1    2    3    1    0    1    2    2    1    2    3    3    2    3    4    4    3    4    5    5    4    5    6    6    5    6    7  
 11   10    9   10   10    9    8    9    9    8    7    8    8    7    6    7    7    6    5    6    6    5    4    5    5    4    3    4    4    3    2    3    3    2    1    2    2    1    0    1    3    2    1    2    4    3    2    3    5    4    3    4    6    5    4    5    7    6    5    6  
 12   11   10    9   11   10    9    8   10    9    8    7    9    8    7    6    8    7    6    5    7    6    5    4    6    5    4    3    5    4    3    2    4    3    2    1    3    2    1    0    4    3    2    1    5    4    3    2    6    5    4    3    7    6    5    4    8    7    6    5  
 10   11   12   13    9   10   11   12    8    9   10   11    7    8    9   10    6    7    8    9    5    6    7    8    4    5    6    7    3    4    5    6    2    3    4    5    1    2    3    4    0    1    2    3    1    2    3    4    2    3    4    5    3    4    5    6    4    5    6    7  
 11   10   11   12   10    9   10   11    9    8    9   10    8    7    8    9    7    6    7    8    6    5    6    7    5    4    5    6    4    3    4    5    3    2    3    4    2    1    2    3    1    0    1    2    2    1    2    3    3    2    3    4    4    3    4    5    5    4    5    6  
 12   11   10   11   11   10    9   10   10    9    8    9    9    8    7    8    8    7    6    7    7    6    5    6    6    5    4    5    5    4    3    4    4    3    2    3    3    2    1    2    2    1    0    1    3    2    1    2    4    3    2    3    5    4    3    4    6    5    4    5  
 13   12   11   10   12   11   10    9   11   10    9    8   10    9    8    7    9    8    7    6    8    7    6    5    7    6    5    4    6    5    4    3    5    4    3    2    4    3    2    1    3    2    1    0    4    3    2    1    5    4    3    2    6    5    4    3    7    6    5    4  
 11   12   13   14   10   11   12   13    9   10   11   12    8    9   10   11    7    8    9   10    6    7    8    9    5    6    7    8    4    5    6    7    3    4    5    6    2    3    4    5    1    2    3    4    0    1    2    3    1    2    3    4    2    3    4    5    3    4    5    6  
 12   11   12   13   11   10   11   12   10    9   10   11    9    8    9   10    8    7    8    9    7    6    7    8    6    5    6    7    5    4    5    6    4    3    4    5    3    2    3    4    2    1    2    3    1    0    1    2    2    1    2    3    3    2    3    4    4    3    4    5  
 13   12   11   12   12   11   10   11   11   10    9   10   10    9    8    9    9    8    7    8    8    7    6    7    7    6    5    6    6    5    4    5    5    4    3    4    4    3    2    3    3    2    1    2    2    1    0    1    3    2    1    2    4    3    2    3    5    4    3    4  
 14   13   12   11   13   12   11   10   12   11   10    9   11   10    9    8   10    9    8    7    9    8    7    6    8    7    6    5    7    6    5    4    6    5    4    3    5    4    3    2    4    3    2    1    3    2    1    0    4    3    2    1    5    4    3    2    6    5    4    3  
 12   13   14   15   11   12   13   14   10   11   12   13    9   10   11   12    8    9   10   11    7    8    9   10    6    7    8    9    5    6    7    8    4    5    6    7    3    4    5    6    2    3    4    5    1    2    3    4    0    1    2    3    1    2    3    4    2    3    4    5  
 13   12   13   14   12   11   12   13   11   10   11   12   10    9   10   11    9    8    9   10    8    7    8    9    7    6    7    8    6    5    6    7    5    4    5    6    4    3    4    5    3    2    3    4    2    1    2    3    1    0    1    2    2    1    2    3    3    2    3    4  
 14   13   12   13   13   12   11   12   12   11   10   11   11   10    9   10   10    9    8    9    9    8    7    8    8    7    6    7    7    6    5    6    6    5    4    5    5    4    3    4    4    3    2    3    3    2    1    2    2    1    0    1    3    2    1    2    4    3    2    3  
 15   14   13   12   14   13   12   11   13   12   11   10   12   11   10    9   11   10    9    8   10    9    8    7    9    8    7    6    8    7    6    5    7    6    5    4    6    5    4    3    5    4    3    2    4    3    2    1    3    2    1    0    4    3    2    1    5    4    3    2  
 13   14   15   16   12   13   14   15   11   12   13   14   10   11   12   13    9   10   11   12    8    9   10   11    7    8    9   10    6    7    8    9    5    6    7    8    4    5    6    7    3    4    5    6    2    3    4    5    1    2    3    4    0    1    2    3    1    2    3    4  
 14   13   14   15   13   12   13   14   12   11   12   13   11   10   11   12   10    9   10   11    9    8    9   10    8    7    8    9    7    6    7    8    6    5    6    7    5    4    5    6    4    3    4    5    3    2    3    4    2    1    2    3    1    0    1    2    2    1    2    3  
 15   14   13   14   14   13   12   13   13   12   11   12   12   11   10   11   11   10    9   10   10    9    8    9    9    8    7    8    8    7    6    7    7    6    5    6    6    5    4    5    5    4    3    4    4    3    2    3    3    2    1    2    2    1    0    1    3    2    1    2  
 16   15   14   13   15   14   13   12   14   13   12   11   13   12   11   10   12   11   10    9   11   10    9    8   10    9    8    7    9    8    7    6    8    7    6    5    7    6    5    4    6    5    4    3    5    4    3    2    4    3    2    1    3    2    1    0    4    3    2    1  
 14   15   16   17   13   14   15   16   12   13   14   15   11   12   13   14   10   11   12   13    9   10   11   12    8    9   10   11    7    8    9   10    6    7    8    9    5    6    7    8    4    5    6    7    3    4    5    6    2    3    4    5    1    2    3    4    0    1    2    3  
 15   14   15   16   14   13   14   15   13   12   13   14   12   11   12   13   11   10   11   12   10    9   10   11    9    8    9   10    8    7    8    9    7    6    7    8    6    5    6    7    5    4    5    6    4    3    4    5    3    2    3    4    2    1    2    3    1    0    1    2  
 16   15   14   15   15   14   13   14   14   13   12   13   13   12   11   12   12   11   10   11   11   10    9   10   10    9    8    9    9    8    7    8    8    7    6    7    7    6    5    6    6    5    4    5    5    4    3    4    4    3    2    3    3    2    1    2    2    1    0    1  
 17   16   15   14   16   15   14   13   15   14   13   12   14   13   12   11   13   12   11   10   12   11   10    9   11   10    9    8   10    9    8    7    9    8    7    6    8    7    6    5    7    6    5    4    6    5    4    3    5    4    3    2    4    3    2    1    3    2    1    0  

  0    9    5    0    0    0    0   90    0    0    0    0   74    0    0    0   31   57    0  100    0   50   40    0    0   13    0    0    0   33    0    0    0    0   58    0    0    0    0    0    0   24    0    0   30    0   69    0    0    0    0    0   65    0    0    0   67    0    0   65  
 17    0    0    0    0    0    0   22    0    0    0   83    0    0    0    0   95   52    0   72    0    3    0    0    0   54    0    0    0   55    0    0    0    0   62    0    0    0    0    0    0   79    0    0    0    0   23    0    0    0    0    0   99    0    0    0   41    0    0    0  
 19    0    0    0    0   67    0    9    0    0    0    0    0   71    0    0   59    0    0    0    0    0   96    0   70   75    0    0    0    0    0    0    0    0   84    0    0    0    6    0    0    0    0    0    0    0    0    0    0    0    0    0    0    0    0    0   35    0    0    0  
  0    0    0    0   93    0    0   73   28   84   48    0    0    0    0    0    0    0    0    0    0    0    0   89    0   53    0    0    0    0    0   48   15   72    0   86    0   44    0    0   31    0   31   23    0    0    0   75   37    0   61    0    0    0    0    0    0   76    0    0  
  0    0   96    3    0    0    0    0   70   73   60    0   91    0    0    0    0   34   39    0    0    0    0   90    0    0   54    0    0    0    0   38   18   40    0   73    0   95    0    0   55    0   54   96    0   85    0   60   15    0    7    0    0    0    0   94    0   84   88   13  
  0    0   57    0    0    0    0   92    0   18    0    0    0   22    0    0   44    0    0    0    0    0   28    0   27    0    0   52    0    0    0    9    0    0   34   65    0    0    0    0   60    0   41    0    0    0    0    0    0    0    0    0    0    0   17    0    0   81    0    0  
  0    0    0    0    0    0    0    0    0    0    0    0    0   54    0    0    0    0    0    0    0    0    0    0    0    0    0    0   34    0   66    0    0    0    0    0   91    0    0   68    0    0    0    0    0    0    0    0    0   96    0    0    0    0    0    0    0    2    0    0  
 60   66   88    0    0    0    0    0    0    0    0   11    0    0   11    0   23   80    0    0    0   32    0    0    0    3    0    0    0   34    0    0    0    0   20    0    0    0   27    0    0   64    0    0   81    0   34    0    0    0    0    0   49    0    0    0   39    0    0    0  
  0    0    0   43   34    0    0    0    0   79   52    0   22    0    0    0    0    0   91   96    0    0   98   53    0    0   32    0    0    0    0   44   66    0    0   27    0   68    0    0    0    0   49   46    0    0    0   29   71    0   13    0    0    0    0   42   51   19   31   66  
  0    0    0   20    7    0    0    0    9    0   67    0   50    0    0    0    0    0   43    0    0    0    0   78    0    0   65    0    0    0   59   67   46   90    0   78    0   51    0    0    0    0    0   88    0    0    0   83    6    0   33    0    0    0    0   23    0   57   98   65  
  0    0   16   25   86    0    0    0   61   45    0    0   55    0    0    0    0   90    0    0    0    0    0   57    0    0   26    0    0    0    0   74   61    4    0   48    0   28    0    0   76    0   35   95   74    0    0   91    0    0   44    0    0   97    0    0    0   80    9   18  
  0    0    0    0    0    0    0   26    0    0    0    0    0    0    0    0    0   33    0    0    0   22   69    0    0   27    0    0    0    0    0    0    0    0    0    0    0    0   69    0    0   35    0    0   11    0    6    0    0    0    0    0    0    0    0    0   98    0    0    0  
 84    0    0    0   64    0    0    0   77   97   59    0    0    0    0    0    0    0    0   42    0    0    1   45    0    0   84    0    0    0    0   33   94    0    0   38    0   94    0    0   42    0   45   77    0    0    0   20   73    0   93    0    0    0    0   18    1   83   69   37  
  0    0   69    0    0   27   75    0    0    0    0    0    0    0    0    0    0    0    0   26    6   44    0    0   64    0    0   97   51    0   49    0    0    0   24    0    0    0    0    2    0    0    0    0    0    0    0    0    0   64    0    0    0    0    0    0    0    0    0    0  
  0    0    0    0    0    0    0    0    0    0    0    0    0    0    0   73   80    0    0   91    0   47    0   25    0    0    0    0   48    0    0    0    0    0    0    0   45    0    0    0   91    0   23    0    0   25    0   71    0    0    0    9    0    5   44    0    0    9    0    0  
  0    0    0    0    0    0    0    0    0    0    0    0    0    0    2    0    0    0    0    0    0    0   77    0    0    0    0   71    0    0   59    0    0    0    0    0   65    0   36    0    0    0    0    0    0    0    0    0    0    0    0   88    0    9   21    0    0    0    0    0  
100   86   68    0    0   59    0   37    0    0    0    0    0    0    0    0    0   22    0    0    0    4   44    0    0   68    0    0    0    0    0    0    0    0   65    0    0    0   71    0    0   73    0    0   31    0    0    0    0    0    0    0    0    0    0    0   26    0    0    0  
 49   29    0    0    0    0    0   36    0    0   57   68    0   24   16   27   64    0    0    0    0    9    0    0    0   73    0    0    0   88    0    0    0    0    0    0    0    0   22    0    0   29    0    0   19    0    1    0    0    0    0    0   50    0    0    0   67    0    0    0  
  0    0    0    0   57   58    0    0   82    1    0    0    0    0    0    0    0    0    0    0    0    0    0   41    0    0   30    0    0    0    0    0    0    0   15   43    0    5    0    0    0   59    0   59    0    0    0    0   31    0    6    0    0    0    0   54    0    0   69   88  
 75   19    0    0    0    0    0    0   81    0   20    0   87    0    0    0    0    0    0    0   20    0    0    0    0    0   52    0    0   37    0    0   88    0    0    0    0    0    0    0    0    0    0   29    0    0   64    0   26    0    0    0    1    0    0   11   88    0   50   70  
  0    0   67    0    0    0    0    0    0    0    0    0    0   54   55    0    0    0    0    0    0    0    0    0   60    0    0   61    0    0   87    0    0    0    0    0   61    0    0    6    0    0    0    0    0    0    0    0    0   58    0   42    0    0    0    0    0    0    0    0  
 91   94    0    0    0    0    0   69    0    0    0   75    0    0    0    0   67   14    0    0    0    0    0    0    0   36    0    0    0   32    0    0    0    0    0    0    0    0    0    0    0   82   83    0    0    0   64    0    0    0    0    0    3    0    0    0   22    0    0    0  
 68    0   67    0    0    8    0    0   15    0    0    0   88    0    0    0   33    0    0    0    0    0    0   73   35    0    0    0    0    0    0   81    0    0   55    0    0    0    0    0   57    0   21   12    0    0    0   92    0    0   68    0    0    0   58    0   75   46    0   66  
  0    0    0   14   16   31    0    0   48    5   72    0   89    0   91    0    0    0    0    0    0    0   16    0    0    0    0    0    0    0    0   97   81   10    0   59    0    0    0    0    3    0    2   50    0    0    0   55    0    0   22    0    0    7   47    0    0    3    0    0  
  0    0   32    0    0   16    0    0    0    0    0    0    0   64    0    0    0    0    0    0   36    0   53    0    0    0    0   86    0    0    0    0    0    0   46    0    0    0    0    0    0    0    0    0    0    0    0    0    0    0    0   97    0   15   59    0    0    0    0    0  
 66   75   84    0    0    0    0   92    0    0    0   16    0    0    0   99   37   76    0    0    0   20    0    0    0    0    0    0    0    0    0    0    0    0    0    0    0    0   69    0    0   38    0    0   87    0   77    0    0   30    0    0    0    0    0    0    6    0    0    0  
  0    0    0    0   48    0    0    0    2   48   74    0   49    0    0    0    0    0   63   26   27    0    0    0    0    0    0    0    0    0    0    2    2    0    0   54    0    9    0    0    0    0    0   60    0    0    0    0   91    0   49    0    0    0    0   50    0    0   95   89  
  0    0    0    0    0   37    0    0    0    0    0    0    0   34    0   75    0    0    0    0   12    0    0    0   10    0    0    0    0    0   56    0    0    0   65    0    0    0    0   46   28    0    0    0    0    0    0    0    0   44    0   40    0    0    0    0    0    0    0    0  
  0    0    0    0    0    0   70    0    0    0    0    0    0   10    0    0   71    0    0    0    0    0    0    0    0    0    0    0    0    0   14    0    0    0    0    0    0   71    0   44    0    0    0    0    0    0    0    0    0   87    0    0    0    0    0    0    0    0    0    0  
 85   70    0    0    0    0    0   22    0    0    0    0    0    0    0    0    0   41    0   25   65   67    0   20    0    0    0    0    0    0    0    0    0    0    0    0   93    0   48    0    0    2    0    0    0    0   19    0    0    0    0    0   25    0    0    0    3    0    0    0  
 42    0    0    0    0    0   13    0    0    0    0    0    0   84    0    0    0    0    0   67   77    0    0    0    0    0    0   60   68    0    0    0    0    0    0    0    0    0    0    1    0    0    0    0    0    0    0    0    0   16    0    0    0    0    0    0    0   39    0   16  
  0    0    0   78   27    0    0    0   27   28   56    0   20    0    0   34    0    0    0    0    0    0   22   41    0    0   10    0    0    0    0    0   47   63    0   67    0   26    0    0   53    0   62   19    0    0    0    3   38   35   86    0    0    0    0   98    0   83   42   90  
 86    0    0   25   65    0   17    0   67   10   72    0   56    0    0    0    0    0    0    0    0    0    0    6    5    0   50    0    0    0    0   97    0   25    0   45    0   91    0    0    0    0    0   83    0    0    0   15    0    0   13    0   49    0    0    0    0   51   16    5  
  0    0    0   46   70    0    0    0    0   29   59    0    0    0    0    0    0    0   18    0    0    0    0   90    0    0    0    0    0    0    0   43   45    0    0    5    0   79    0    0   75    0    0    0    0   87    0   49    0    0   57    0    0    0    0    0    0   99    0    0  
 18    0   87    0    0    6    0   85    0    0    0    0    0   13    0    0    6    0    0    0    0    0   97    0   53    0    0   54    0    0    0    0    0    0    0    0    0    0   65    0    8    0   73    0    0   40    0    0    0    0    0    0    0    0    0    9   25    0    0    0  
  0    0    0    5   77   84    0    0   61   54   72    0   84    0    0   34    0    0   12    0    0    0    0    3    0    0    3    0    0    0    0   45   79   65    0    0    0   68    0    0   41    0   13   38    0    0    0   43   97    0   40    0    0    0   36   71    0   74   41   18  
  0    0    0    0    0    0    0    0    0   60    0   48    0    0   84   71    0    0    0    0    0    0    0    0   80    0    0    0    0    0    0    0    0    0    0    0    0    0    0    0    0    0    0    0    0    1    0    0    0    0    0    0   82    0    0    0    0    0    0   43  
  0    0    0   22   94    0    0    0   31    4   47    0   15    0    0    0    0    0   84    0    0    0    0    0    0    0   55    0    0    0    0   39   96    6    0   62    0    0    0    0    0    0    0   54    0    0    0   97   51    0   43    0    0    0    0   15    0   31   32   25  
  0    0    1    0    0    0    0    5    0    0    0   95    0    0    0    0   80   36    0    0    0   24    0   25    0   75    0    0    0    0    0    0    0    0   92    0    0    0    0    0    0   19    0    0    7    0    0    0    0    0    0    0    0    0   99    0    0    0    0    0  
  0    0    0    0    0    0   20    0    0    0    0   30    0   52    0    0    0    0    0    0   76    0    0    0    0    0    0   39   60    0   40    0    0   16    0    0    0    0    0    0    0    0    0    0    0    0   20    0    0   22    0    0    0    0    0    0    0    0    0    0  
  0    0    0   89   58   69    0    0    0    0   24    0   31    0    1    0    0    0    0    0    0    0    7    3    0    0    0    0    0    0    0   94    0   20   12   55    0    0    0    0    0    0   12   89    0    0    0   68    0    0   95    0    0   55   31    0    0   54    0   96  
 21   35    0    0    0    0    0   15    0    0    0   45    0    0    0    0   20   27    0    0    0   55    0    0    0    8    0    0    0   64    0    0    0    0    0    0    0    0    8    0    0    0    0   35   60    0   94    0    0    0    0    0    0    0    0    0    2    0    0    0  
  0    0    0  100   63   67    0    0   77    0   79    0   38    0   83    0    0    0    0    0    0    0   82    3   36    0    0    0   34    0    0    2    0    0   28   46    0    0    0    0   15    0    0   54    0    0    0   27    0    0   93    0    0   53   79    0    0   37    0   88  
  0    0    0   31    5    0    0    0   20   32   27    0   31    0    0    0   73    0   37   88    0    0   84   77    0    0   84    0    0    0    0   19   15    0    0    7    0   61    0    0   34    0   49    0    0    0    0   87   85    0   74    0    0    0    0   27    0   86   41   93  
 14    0    0    0    0   68    0   69    0    0    0   39    0    0    0    0   43   62    0    0    0    0    0    0    0   78    0    0    0    0    0    0    0    0    0    0    0    0   39    0    0   24    0    0    0    0    0    0    0    0    0    0    0    0    0    0   85    0    0    0  
  0    0    0    0    0    0    0    0    0   40    0    0    0    0   71    0    0    0    0    0    0    0    0    0    0    0    0    0    0    0    0    0    0   77    0    0   27   38    0    0    0    0    0    0    0    0    0    0    0    0    0    0    0    0    0    0    0    0    0    0  
 43   16    0    0    0    0    0   49    0    0    0   31    0    0    0   37    0   15   64   13    0   59    0    0    0    8    0    0    0   92    0    0    0    0    0    0    0    0    0    0    0    2    0    0    0    0    0    0    0    0    0    0    3    0    0    0   12    0    0    0  
  0    0    0   86   57    0    0    0   75   28   51   47   52    0   35   94    0    0    0    0    0    0   89   80    0    0    0    0    0    0    0   58   13   61    0   33    0   58    0    0    9    0   91   37    0    0    0    0    0    0   90    0    0   43   23    0    0   56   14   42  
  0    0    0    0    6    0    0    0   85   92    0    0    1    7    0    0    0    0   69   24    0   14    0    0   89    0   33    0    0    0    0   86    0    0    0   37    0   40    0    0    0    0    0   54   24    0    0    0    0   15   13   78   99    0    0   95    0    0   47   73  
  0    0    0    0    0    0   95    0    0    0    0    0    0   29    0    0   53    0    0    0   72   86    0    0    0    0    0   79   36    0   43    0    0    0    0    0    0    0    0   11    0    0    0    0    0   33    0    0    0    0    0    0    0    0    0    0    0    0    0    0  
  0    0    0   28   54    0    0    0   68    4   25    0   81    0    0    0    0    0   93    0    0    0   65   69    0    0   98    0    0    0    0   13   64   92    0   18    0   19    0    0   50   81   50   30    0    0    0    6   95    0    0    0    0    0   19   39    0   46    1    5  
  0   64    0    0    0    0    0    0    0    0    0    0    0    0   36   29    0    0    0    0   41    0    0    0   57    0    0   26    0    0    0    0    0    0    0    0    0    0    0    0    0    0    0    0    0    0    0    0    0    0    0    0    0   84   92    0    0    0    0    0  
 89   54    0    0    0    0    0   50    0    0    0    0    0    0    0    0    0    0    0   32    0   51    0    0    0    0    0    0    0   47    0    0    0    0    0    0    0    0   52    0    0    0    0    0    0    0   97    0   37    0    0    0    0    0    0    0    1    0    0   30  
  0    0    0    0    0   67    0    0    0    0    0    0    0    0   92   57    0    0    0    0    0    0    0    6   39    0    0    0    0   29    0    0    0    0    0    0    0    0    0    0   19    0    2    0    0    0    0   92    0    0    0   12    0    0   42    0    0   64    0    0  
 54   40    0    0    0    1    0    0    0    0    0    0    0    0   69   71    0    0    0    0    0    0   12   31   43    0    0    0    0    0    0    0    0    0    0    0    0    0    0    0    1    0   77    0    0    0    0   59    0    0    0   84    0   97    0    0    0   90    0    0  
  0    0    0   88   29    0    0    0   86    8    0    0   94   63    0    0    0    0   81   28    0    0    0    0    0    0   56    0    0   59    0   44    0    0    0   53    0   36    0    0    0    0    0   17    0    0    0    0   89    0   98    0    0    0    0    0    0    0   98   33  
100   13   33    0   65    0    0   29    0    0    0    0   99    0    0    0   24   99    0   19    0   58    8    0    0   51    0    0    0   96    0    0    0    0   76    0    0    0    0    0    0   38    0    0    0    0   78    0    0    0    0   18   27    0    0    0    0    0    0   41  
  0    0    0   16   76    0   23    0   68   23   54    0   23    0   37    0   27    0    0    0    0    0    2   50    0    0    0    0    0    0    0   97   71   13    0   14   48   68    0    0   43    0   82   36    0   26    0   85    0    0   77    0    0   93   49    0    0    0   14   83  
  0    0    0    0   98    0    0    0   86   70   96    0   86    0    0    0    0    0   81   75    0    0    0    0    0    0   24    0    0    0    0   78   37    0    0   27    0   53    0    0    0    0    0   74    0    0    0   98   29    0    9    0    0    0    0   27    0   66    0    8  
 23    0    0    0   87    0    0    0   25   42   18   15   40    0    0    0    0    0   74   36    0    0   22    0    0    0   39    0    0    0    0   47   99    0    0   50    0   56    0    0   20    0   14   31    0    0    0   14   58    0   53   72   13    0    0    5   34   38   17    0  
